x low 4.00
p edge 425 1251
n 0 1.00
n 335 1.00
n 332 1.00
n 324 1.00
n 317 1.00
n 310 1.00
n 300 1.00
n 276 1.00
n 271 1.00
n 220 1.00
n 202 1.00
n 189 1.00
n 174 1.00
n 163 1.00
n 239 1.00
n 147 1.00
n 134 1.00
n 120 1.00
n 95 1.00
n 62 1.00
n 30 1.00
n 31 1.00
n 32 1.00
n 33 1.00
n 34 1.00
n 35 1.00
n 3 1.00
n 4 1.00
n 5 1.00
n 6 1.00
n 7 1.00
n 8 1.00
n 9 1.00
n 10 1.00
n 11 1.00
n 12 1.00
n 13 1.00
n 14 1.00
n 15 1.00
n 16 1.00
n 1 1.00
n 2 1.00
n 28 1.00
n 27 1.00
n 26 1.00
n 25 1.00
n 24 1.00
n 23 1.00
n 22 1.00
n 21 1.00
n 20 1.00
n 19 1.00
n 18 1.00
n 17 1.00
n 29 1.00
n 36 1.00
n 37 1.00
n 38 1.00
n 39 1.00
n 40 1.00
n 41 1.00
n 42 1.00
n 43 1.00
n 44 1.00
n 45 1.00
n 46 1.00
n 47 1.00
n 48 1.00
n 49 1.00
n 50 1.00
n 51 1.00
n 52 1.00
n 53 1.00
n 54 1.00
n 55 1.00
n 56 1.00
n 57 1.00
n 58 1.00
n 59 1.00
n 60 1.00
n 61 1.00
n 94 1.00
n 113 1.00
n 63 1.00
n 64 1.00
n 65 1.00
n 66 1.00
n 67 1.00
n 68 1.00
n 69 1.00
n 70 1.00
n 71 1.00
n 72 1.00
n 73 1.00
n 74 1.00
n 75 1.00
n 76 1.00
n 77 1.00
n 78 1.00
n 79 1.00
n 80 1.00
n 81 1.00
n 82 1.00
n 83 1.00
n 84 1.00
n 85 1.00
n 86 1.00
n 87 1.00
n 88 1.00
n 89 1.00
n 90 1.00
n 91 1.00
n 92 1.00
n 93 1.00
n 96 1.00
n 97 1.00
n 98 1.00
n 99 1.00
n 100 1.00
n 127 1.00
n 114 1.00
n 104 1.00
n 115 1.00
n 105 1.00
n 108 1.00
n 109 1.00
n 110 1.00
n 101 1.00
n 119 1.00
n 121 1.00
n 106 1.00
n 107 1.00
n 102 1.00
n 103 1.00
n 112 1.00
n 111 1.00
n 124 1.00
n 125 1.00
n 122 1.00
n 123 1.00
n 116 1.00
n 117 1.00
n 118 1.00
n 126 1.00
n 137 1.00
n 150 1.00
n 166 1.00
n 177 1.00
n 192 1.00
n 205 1.00
n 223 1.00
n 237 1.00
n 393 1.00
n 128 1.00
n 157 1.00
n 129 1.00
n 130 1.00
n 139 1.00
n 131 1.00
n 132 1.00
n 133 1.00
n 135 1.00
n 136 1.00
n 138 1.00
n 141 1.00
n 140 1.00
n 153 1.00
n 180 1.00
n 168 1.00
n 155 1.00
n 142 1.00
n 143 1.00
n 144 1.00
n 145 1.00
n 152 1.00
n 146 1.00
n 148 1.00
n 149 1.00
n 151 1.00
n 154 1.00
n 167 1.00
n 156 1.00
n 158 1.00
n 159 1.00
n 160 1.00
n 162 1.00
n 164 1.00
n 165 1.00
n 161 1.00
n 179 1.00
n 171 1.00
n 182 1.00
n 181 1.00
n 169 1.00
n 184 1.00
n 170 1.00
n 172 1.00
n 188 1.00
n 173 1.00
n 175 1.00
n 178 1.00
n 176 1.00
n 195 1.00
n 183 1.00
n 185 1.00
n 186 1.00
n 194 1.00
n 187 1.00
n 190 1.00
n 193 1.00
n 191 1.00
n 207 1.00
n 210 1.00
n 225 1.00
n 196 1.00
n 199 1.00
n 200 1.00
n 208 1.00
n 197 1.00
n 198 1.00
n 201 1.00
n 218 1.00
n 206 1.00
n 203 1.00
n 204 1.00
n 241 1.00
n 242 1.00
n 211 1.00
n 212 1.00
n 213 1.00
n 214 1.00
n 209 1.00
n 215 1.00
n 216 1.00
n 217 1.00
n 224 1.00
n 219 1.00
n 221 1.00
n 222 1.00
n 227 1.00
n 228 1.00
n 230 1.00
n 231 1.00
n 226 1.00
n 229 1.00
n 247 1.00
n 232 1.00
n 233 1.00
n 234 1.00
n 235 1.00
n 240 1.00
n 236 1.00
n 251 1.00
n 263 1.00
n 243 1.00
n 244 1.00
n 238 1.00
n 245 1.00
n 246 1.00
n 248 1.00
n 249 1.00
n 250 1.00
n 255 1.00
n 256 1.00
n 259 1.00
n 260 1.00
n 253 1.00
n 266 1.00
n 254 1.00
n 257 1.00
n 261 1.00
n 252 1.00
n 274 1.00
n 277 1.00
n 265 1.00
n 262 1.00
n 258 1.00
n 307 1.00
n 280 1.00
n 281 1.00
n 273 1.00
n 267 1.00
n 268 1.00
n 269 1.00
n 270 1.00
n 264 1.00
n 275 1.00
n 278 1.00
n 279 1.00
n 306 1.00
n 295 1.00
n 296 1.00
n 302 1.00
n 308 1.00
n 311 1.00
n 303 1.00
n 282 1.00
n 283 1.00
n 284 1.00
n 285 1.00
n 286 1.00
n 287 1.00
n 288 1.00
n 289 1.00
n 290 1.00
n 291 1.00
n 292 1.00
n 293 1.00
n 294 1.00
n 297 1.00
n 298 1.00
n 299 1.00
n 304 1.00
n 301 1.00
n 305 1.00
n 336 1.00
n 330 1.00
n 323 1.00
n 328 1.00
n 309 1.00
n 316 1.00
n 313 1.00
n 331 1.00
n 352 1.00
n 353 1.00
n 314 1.00
n 321 1.00
n 329 1.00
n 318 1.00
n 315 1.00
n 325 1.00
n 326 1.00
n 319 1.00
n 312 1.00
n 320 1.00
n 334 1.00
n 354 1.00
n 322 1.00
n 345 1.00
n 346 1.00
n 347 1.00
n 333 1.00
n 327 1.00
n 355 1.00
n 356 1.00
n 357 1.00
n 360 1.00
n 365 1.00
n 342 1.00
n 343 1.00
n 344 1.00
n 358 1.00
n 359 1.00
n 338 1.00
n 339 1.00
n 340 1.00
n 341 1.00
n 348 1.00
n 349 1.00
n 350 1.00
n 351 1.00
n 362 1.00
n 337 1.00
n 407 1.00
n 361 1.00
n 363 1.00
n 364 1.00
n 394 1.00
n 366 1.00
n 367 1.00
n 368 1.00
n 369 1.00
n 370 1.00
n 371 1.00
n 372 1.00
n 373 1.00
n 374 1.00
n 375 1.00
n 376 1.00
n 377 1.00
n 378 1.00
n 379 1.00
n 398 1.00
n 380 1.00
n 381 1.00
n 382 1.00
n 383 1.00
n 384 1.00
n 385 1.00
n 386 1.00
n 387 1.00
n 388 1.00
n 389 1.00
n 390 1.00
n 397 1.00
n 395 1.00
n 396 1.00
n 391 1.00
n 392 1.00
n 400 1.00
n 399 1.00
n 404 1.00
n 417 1.00
n 410 1.00
n 420 1.00
n 411 1.00
n 401 1.00
n 405 1.00
n 402 1.00
n 406 1.00
n 432 1.00
n 403 1.00
n 435 1.00
n 436 1.00
n 437 1.00
n 408 1.00
n 439 1.00
n 409 1.00
n 413 1.00
n 415 1.00
n 440 1.00
n 422 1.00
n 424 1.00
n 425 1.00
n 429 1.00
e 0 335
e 0 332
e 0 324
e 0 317
e 0 310
e 0 300
e 0 276
e 0 271
e 0 220
e 0 202
e 0 189
e 0 174
e 0 163
e 0 239
e 0 147
e 0 134
e 0 120
e 0 95
e 0 62
e 0 30
e 0 31
e 0 32
e 0 33
e 0 34
e 0 35
e 0 3
e 0 4
e 0 5
e 0 6
e 0 7
e 0 8
e 0 9
e 0 10
e 0 11
e 0 12
e 0 13
e 0 14
e 0 15
e 0 16
e 0 1
e 0 2
e 1 28
e 1 27
e 1 2
e 1 26
e 1 25
e 1 24
e 1 23
e 1 22
e 1 21
e 1 20
e 1 19
e 1 18
e 1 17
e 1 16
e 2 28
e 2 29
e 3 36
e 3 35
e 3 37
e 3 4
e 4 37
e 4 38
e 4 5
e 5 38
e 5 39
e 5 6
e 6 39
e 6 40
e 6 7
e 7 40
e 7 41
e 7 8
e 8 41
e 8 42
e 8 9
e 9 42
e 9 43
e 9 10
e 10 43
e 10 44
e 10 11
e 11 44
e 11 45
e 11 12
e 12 45
e 12 46
e 12 13
e 13 46
e 13 47
e 13 14
e 14 47
e 14 48
e 14 15
e 15 48
e 15 49
e 15 16
e 16 49
e 16 50
e 16 17
e 17 50
e 17 51
e 17 18
e 18 51
e 18 52
e 18 19
e 19 52
e 19 53
e 19 20
e 20 53
e 20 54
e 20 21
e 21 54
e 21 55
e 21 22
e 22 55
e 22 56
e 22 23
e 23 56
e 23 57
e 23 24
e 24 57
e 24 58
e 24 25
e 25 58
e 25 59
e 25 26
e 26 59
e 26 60
e 26 27
e 27 60
e 27 28
e 27 61
e 28 61
e 28 29
e 29 61
e 29 94
e 29 113
e 30 62
e 30 63
e 30 31
e 31 63
e 31 64
e 31 32
e 32 64
e 32 65
e 32 33
e 33 65
e 33 66
e 33 34
e 34 66
e 34 67
e 34 35
e 35 67
e 35 36
e 36 67
e 36 68
e 36 37
e 36 69
e 37 69
e 37 38
e 37 70
e 38 70
e 38 39
e 38 71
e 39 71
e 39 40
e 39 72
e 40 72
e 40 41
e 40 73
e 41 73
e 41 42
e 41 74
e 42 74
e 42 43
e 42 75
e 43 75
e 43 44
e 43 76
e 44 76
e 44 45
e 44 77
e 45 77
e 45 46
e 45 78
e 46 78
e 46 47
e 46 79
e 47 79
e 47 48
e 47 80
e 48 80
e 48 49
e 48 81
e 49 81
e 49 50
e 49 82
e 50 82
e 50 51
e 50 83
e 51 83
e 51 52
e 51 84
e 52 84
e 52 53
e 52 85
e 53 85
e 53 54
e 53 86
e 54 86
e 54 55
e 54 87
e 55 87
e 55 56
e 55 88
e 56 88
e 56 57
e 56 89
e 57 89
e 57 58
e 57 90
e 58 90
e 58 59
e 58 91
e 59 91
e 59 60
e 59 92
e 60 92
e 60 61
e 60 93
e 61 93
e 61 94
e 62 95
e 62 63
e 62 96
e 63 96
e 63 64
e 63 97
e 64 97
e 64 65
e 64 98
e 65 98
e 65 66
e 65 99
e 66 99
e 66 67
e 66 100
e 67 100
e 67 68
e 68 100
e 68 69
e 68 127
e 69 70
e 69 127
e 70 71
e 70 127
e 70 114
e 71 72
e 71 114
e 71 104
e 72 104
e 72 73
e 73 104
e 73 74
e 74 104
e 74 75
e 75 104
e 75 115
e 75 76
e 75 105
e 76 105
e 76 77
e 77 105
e 77 78
e 78 105
e 78 108
e 78 79
e 79 108
e 79 80
e 80 108
e 80 81
e 80 109
e 81 109
e 81 82
e 82 109
e 82 110
e 82 83
e 83 110
e 83 101
e 83 84
e 84 101
e 84 85
e 85 101
e 85 86
e 85 119
e 86 119
e 86 87
e 86 121
e 87 88
e 87 121
e 87 106
e 88 106
e 88 89
e 89 106
e 89 90
e 90 106
e 90 107
e 90 91
e 91 107
e 91 102
e 91 92
e 92 102
e 92 103
e 92 93
e 93 103
e 93 94
e 94 103
e 94 112
e 94 113
e 95 120
e 95 111
e 95 96
e 96 111
e 96 97
e 96 124
e 97 124
e 97 98
e 98 124
e 98 99
e 99 100
e 99 124
e 99 127
e 100 127
e 101 110
e 101 125
e 101 119
e 102 107
e 102 122
e 102 103
e 103 122
e 103 123
e 103 112
e 104 114
e 104 115
e 105 115
e 105 116
e 105 108
e 105 117
e 106 121
e 106 107
e 107 121
e 107 122
e 108 117
e 108 109
e 109 117
e 109 118
e 109 110
e 110 118
e 110 125
e 111 120
e 111 126
e 111 124
e 112 123
e 112 113
e 113 123
e 113 137
e 113 150
e 113 166
e 113 177
e 113 192
e 113 205
e 113 223
e 113 237
e 113 393
e 114 127
e 114 128
e 114 115
e 115 128
e 115 157
e 115 129
e 115 116
e 116 129
e 116 130
e 116 117
e 117 130
e 117 139
e 117 118
e 118 139
e 118 131
e 118 125
e 119 132
e 119 125
e 119 133
e 119 135
e 119 121
e 120 134
e 120 126
e 121 135
e 121 122
e 121 136
e 122 136
e 122 137
e 122 123
e 123 137
e 124 126
e 124 138
e 124 141
e 124 127
e 125 131
e 125 132
e 126 134
e 126 140
e 126 138
e 127 153
e 127 141
e 127 180
e 127 168
e 127 155
e 127 128
e 128 155
e 128 142
e 128 157
e 129 157
e 129 143
e 129 130
e 129 144
e 130 144
e 130 139
e 131 139
e 131 145
e 131 132
e 132 145
e 132 152
e 132 146
e 132 133
e 133 146
e 133 135
e 133 148
e 134 147
e 134 140
e 135 148
e 135 136
e 135 149
e 136 149
e 136 137
e 136 150
e 137 150
e 138 140
e 138 151
e 138 141
e 139 144
e 139 154
e 139 145
e 140 147
e 140 163
e 140 167
e 140 151
e 141 151
e 141 153
e 142 155
e 142 156
e 142 157
e 143 157
e 143 158
e 143 144
e 143 159
e 144 159
e 144 154
e 145 154
e 145 160
e 145 152
e 146 152
e 146 162
e 146 148
e 146 164
e 147 163
e 148 164
e 148 149
e 148 165
e 149 165
e 149 150
e 149 166
e 150 166
e 151 167
e 151 153
e 152 160
e 152 161
e 152 162
e 153 167
e 153 179
e 153 180
e 154 159
e 154 171
e 154 182
e 154 160
e 155 168
e 155 181
e 155 156
e 156 181
e 156 169
e 156 157
e 157 169
e 157 184
e 157 170
e 157 158
e 158 170
e 158 159
e 158 171
e 159 171
e 160 182
e 160 172
e 160 161
e 161 172
e 161 188
e 161 173
e 161 162
e 162 173
e 162 164
e 162 175
e 163 174
e 163 167
e 163 178
e 164 175
e 164 165
e 164 176
e 165 176
e 165 166
e 165 177
e 166 177
e 167 178
e 167 179
e 168 180
e 168 195
e 168 181
e 169 181
e 169 183
e 169 184
e 170 184
e 170 185
e 170 171
e 170 186
e 171 186
e 171 194
e 171 182
e 172 182
e 172 187
e 172 188
e 173 188
e 173 175
e 173 190
e 174 189
e 174 178
e 174 193
e 175 190
e 175 176
e 175 191
e 176 191
e 176 177
e 176 192
e 177 192
e 178 193
e 178 179
e 179 193
e 179 207
e 179 180
e 180 207
e 180 210
e 180 225
e 180 195
e 181 195
e 181 196
e 181 183
e 182 194
e 182 199
e 182 200
e 182 187
e 183 196
e 183 184
e 184 196
e 184 208
e 184 197
e 184 185
e 185 197
e 185 186
e 185 198
e 186 198
e 186 194
e 187 200
e 187 188
e 187 201
e 188 201
e 188 218
e 188 190
e 189 202
e 189 193
e 189 206
e 190 218
e 190 203
e 190 191
e 190 204
e 191 204
e 191 192
e 191 205
e 192 205
e 193 206
e 193 207
e 194 198
e 194 199
e 195 225
e 195 241
e 195 242
e 195 211
e 195 196
e 196 211
e 196 208
e 197 208
e 197 212
e 197 213
e 197 198
e 198 213
e 198 214
e 198 209
e 198 199
e 199 209
e 199 215
e 199 200
e 200 215
e 200 216
e 200 201
e 201 216
e 201 217
e 201 218
e 202 220
e 202 206
e 202 224
e 203 218
e 203 219
e 203 221
e 203 204
e 203 222
e 204 222
e 204 205
e 204 223
e 205 223
e 206 224
e 206 207
e 207 224
e 207 210
e 208 211
e 208 227
e 208 228
e 208 212
e 209 214
e 209 230
e 209 215
e 209 231
e 210 224
e 210 226
e 210 225
e 211 242
e 211 227
e 212 228
e 212 229
e 212 213
e 213 229
e 213 230
e 213 214
e 214 230
e 215 231
e 215 216
e 216 231
e 216 247
e 216 232
e 216 217
e 217 232
e 217 233
e 217 218
e 218 233
e 218 234
e 218 219
e 219 234
e 219 235
e 219 221
e 220 239
e 220 240
e 220 224
e 221 235
e 221 222
e 221 236
e 222 236
e 222 223
e 222 237
e 223 237
e 224 240
e 224 226
e 225 226
e 225 251
e 225 241
e 226 240
e 226 263
e 226 251
e 227 242
e 227 243
e 227 228
e 227 244
e 228 244
e 228 238
e 228 229
e 229 238
e 229 230
e 229 245
e 230 245
e 230 231
e 230 246
e 231 246
e 231 247
e 232 247
e 232 233
e 233 247
e 233 234
e 234 247
e 234 235
e 234 248
e 235 248
e 235 236
e 235 249
e 236 249
e 236 237
e 236 250
e 237 250
e 237 393
e 238 244
e 238 255
e 238 245
e 238 256
e 239 271
e 239 259
e 239 240
e 240 259
e 240 260
e 240 263
e 241 251
e 241 253
e 241 242
e 242 253
e 242 266
e 242 254
e 242 243
e 243 254
e 243 244
e 243 255
e 244 255
e 245 256
e 245 246
e 245 257
e 246 257
e 246 261
e 246 247
e 247 261
e 247 252
e 247 274
e 247 248
e 248 274
e 248 277
e 248 249
e 248 265
e 249 265
e 249 262
e 249 250
e 250 262
e 250 258
e 250 393
e 251 263
e 251 307
e 251 280
e 251 253
e 251 281
e 251 266
e 252 261
e 252 273
e 252 274
e 253 266
e 254 266
e 254 267
e 254 255
e 254 268
e 255 268
e 255 256
e 255 269
e 256 269
e 256 257
e 256 270
e 257 270
e 257 264
e 257 261
e 258 275
e 258 262
e 258 278
e 258 393
e 259 271
e 259 260
e 260 271
e 260 276
e 260 279
e 260 263
e 261 264
e 261 273
e 262 265
e 262 275
e 263 279
e 263 306
e 263 307
e 264 270
e 264 295
e 264 296
e 264 273
e 265 277
e 265 302
e 265 308
e 265 311
e 265 275
e 265 303
e 266 281
e 266 282
e 266 283
e 266 284
e 266 267
e 267 284
e 267 285
e 267 286
e 267 268
e 268 286
e 268 287
e 268 288
e 268 289
e 268 269
e 269 289
e 269 290
e 269 291
e 269 292
e 269 270
e 270 292
e 270 293
e 270 294
e 270 295
e 271 276
e 273 296
e 273 297
e 273 274
e 273 298
e 274 298
e 274 299
e 274 277
e 275 303
e 275 278
e 276 300
e 276 304
e 276 279
e 277 299
e 277 301
e 277 302
e 278 303
e 278 393
e 279 304
e 279 305
e 279 306
e 280 307
e 280 336
e 280 281
e 280 330
e 281 282
e 281 330
e 282 283
e 282 330
e 282 323
e 283 323
e 283 284
e 284 323
e 284 285
e 285 323
e 285 328
e 285 309
e 285 286
e 286 309
e 286 287
e 287 309
e 287 288
e 288 309
e 288 316
e 288 289
e 289 316
e 289 313
e 289 290
e 290 313
e 290 291
e 291 313
e 291 292
e 292 313
e 292 331
e 292 293
e 293 294
e 293 331
e 294 295
e 294 331
e 294 352
e 294 353
e 295 296
e 295 353
e 295 314
e 296 297
e 296 314
e 297 314
e 297 298
e 298 314
e 298 299
e 299 314
e 299 321
e 299 301
e 300 310
e 300 304
e 301 321
e 301 302
e 301 308
e 301 329
e 301 318
e 302 308
e 303 315
e 303 311
e 303 325
e 303 326
e 303 393
e 304 310
e 304 319
e 304 312
e 304 305
e 305 312
e 305 306
e 306 312
e 306 320
e 306 307
e 306 334
e 307 334
e 307 336
e 308 318
e 308 311
e 309 328
e 309 316
e 310 317
e 310 319
e 311 318
e 311 315
e 312 319
e 312 320
e 313 316
e 313 331
e 314 353
e 314 354
e 314 321
e 315 318
e 315 322
e 315 325
e 316 328
e 316 345
e 316 346
e 316 347
e 316 331
e 317 324
e 317 319
e 318 329
e 318 322
e 319 324
e 319 332
e 319 333
e 319 327
e 319 320
e 320 327
e 320 334
e 321 354
e 321 355
e 321 356
e 321 357
e 321 329
e 322 329
e 322 325
e 322 360
e 323 330
e 323 328
e 324 332
e 325 360
e 325 326
e 326 360
e 326 365
e 326 393
e 327 333
e 327 334
e 328 330
e 328 342
e 328 343
e 328 344
e 328 345
e 329 357
e 329 358
e 329 359
e 329 360
e 330 338
e 330 339
e 330 340
e 330 336
e 330 341
e 330 342
e 331 347
e 331 348
e 331 349
e 331 350
e 331 351
e 331 352
e 332 335
e 332 333
e 333 335
e 333 362
e 333 337
e 333 334
e 334 337
e 334 336
e 335 407
e 335 361
e 335 362
e 336 337
e 336 363
e 336 364
e 336 338
e 337 362
e 337 394
e 337 363
e 338 366
e 338 364
e 338 367
e 338 339
e 339 367
e 339 368
e 339 340
e 340 368
e 340 369
e 340 341
e 341 369
e 341 370
e 341 342
e 342 370
e 342 371
e 342 343
e 343 371
e 343 372
e 343 344
e 344 372
e 344 373
e 344 345
e 345 373
e 345 374
e 345 346
e 346 374
e 346 375
e 346 347
e 347 375
e 347 376
e 347 348
e 348 376
e 348 377
e 348 349
e 349 377
e 349 378
e 349 350
e 350 378
e 350 379
e 350 351
e 351 379
e 351 352
e 352 379
e 352 398
e 352 380
e 352 353
e 353 380
e 353 381
e 353 354
e 354 381
e 354 382
e 354 355
e 355 382
e 355 383
e 355 356
e 356 383
e 356 384
e 356 357
e 357 384
e 357 385
e 357 358
e 358 385
e 358 386
e 358 359
e 359 386
e 359 387
e 359 360
e 360 387
e 360 388
e 360 389
e 360 390
e 360 365
e 361 407
e 361 397
e 361 362
e 362 397
e 362 394
e 363 394
e 363 395
e 363 364
e 363 396
e 364 396
e 364 366
e 365 390
e 365 391
e 365 392
e 365 393
e 366 396
e 366 400
e 366 367
e 366 399
e 367 399
e 367 368
e 368 399
e 368 369
e 369 399
e 369 404
e 369 370
e 370 404
e 370 371
e 371 404
e 371 372
e 371 417
e 372 417
e 372 373
e 372 410
e 373 410
e 373 374
e 374 410
e 374 375
e 375 410
e 375 420
e 375 376
e 375 411
e 376 411
e 376 377
e 377 411
e 377 401
e 377 378
e 378 401
e 378 379
e 379 401
e 379 398
e 380 398
e 380 405
e 380 381
e 380 402
e 381 402
e 381 382
e 382 402
e 382 383
e 383 402
e 383 384
e 384 402
e 384 406
e 384 385
e 385 406
e 385 386
e 386 406
e 386 387
e 386 432
e 387 432
e 387 403
e 387 388
e 388 403
e 388 389
e 389 403
e 389 390
e 390 403
e 390 435
e 390 391
e 390 436
e 391 392
e 391 436
e 391 437
e 392 437
e 392 393
e 394 397
e 394 408
e 394 439
e 394 395
e 394 400
e 395 400
e 395 396
e 396 400
e 397 407
e 397 408
e 398 401
e 398 405
e 399 400
e 399 409
e 399 413
e 399 415
e 399 404
e 400 439
e 400 440
e 400 409
e 401 411
e 401 422
e 401 424
e 401 405
e 402 405
e 402 425
e 402 429
e 402 406
e 403 432
e 403 435
e 404 415
e 404 417
e 405 424
e 405 425
e 406 429
e 406 432
e 407 408
e 407 439
e 408 439
e 409 440
e 409 413
e 410 417
e 410 420
e 411 420
e 411 422
e 424 425
e 435 436
e 436 437
e 439 440
e 437 393
e 415 413
e 424 422
e 425 429
e 432 435
e 417 415
e 429 432
e 440 413
e 417 420
e 422 420
